sat
(model
  (define-fun |f$unknown:6|
    ( (v_0 Int) (v_1 Int) ) Bool
    (or (>= v_0 1) (not (= (+ (- 3) v_1) 0)))
  )
  (define-fun |decr$unknown:2|
    ( (v_0 Int) (v_1 Int) ) Bool
    (= (+ v_0 (* (- 1) v_1) 1) 0)
  )
  (define-fun |f$unknown:4|
    ( (v_0 Int) (v_1 Int) ) Bool
    (|decr$unknown:2| v_0 v_1)
  )
)
